benchmark/results/graph__10-1000-0.10-04_12/graph__10-1000-0.10-04_12_QuintonOs_Benders_primal_sub.lp
\ This file has been generated by DOcplex
\ ENCODING=ISO-8859-1
\Problem name: Quinton Bounded Benders_primal_sub

Maximize
 obj: tau
Subject To
 c1: tau <= 0.001207729469
 c2: y_a0_proc_0 + y_a0_proc_1 + y_a0_proc_2 + y_a0_proc_3 - tau = 0
 c3: y_a0_proc_0 <= 0
 c4: y_a0_proc_1 <= 0
 c5: y_a0_proc_2 <= 1
 c6: y_a0_proc_3 <= 0
 c7: tau <= 0.001488095238
 c8: y_a1_proc_0 + y_a1_proc_1 - tau = 0
 c9: y_a1_proc_0 <= 0
 c10: y_a1_proc_1 <= 1
 c11: tau <= 0.003389830508
 c12: y_a2_proc_0 + y_a2_proc_1 + y_a2_proc_2 + y_a2_proc_3 - tau = 0
 c13: y_a2_proc_0 <= 1
 c14: y_a2_proc_1 <= 0
 c15: y_a2_proc_2 <= 0
 c16: y_a2_proc_3 <= 0
 c17: tau <= 0.001506024096
 c18: y_a3_proc_0 + y_a3_proc_1 + y_a3_proc_3 - tau = 0
 c19: y_a3_proc_0 <= 0
 c20: y_a3_proc_1 <= 0
 c21: y_a3_proc_3 <= 1
 c22: tau <= 0.000815660685
 c23: y_a4_proc_0 + y_a4_proc_2 + y_a4_proc_3 - tau = 0
 c24: y_a4_proc_0 <= 1
 c25: y_a4_proc_2 <= 0
 c26: y_a4_proc_3 <= 0
 c27: tau <= 0.001779359431
 c28: y_a5_proc_0 + y_a5_proc_2 - tau = 0
 c29: y_a5_proc_0 <= 0
 c30: y_a5_proc_2 <= 1
 c31: tau <= 0.002298850575
 c32: y_a6_proc_0 + y_a6_proc_1 + y_a6_proc_2 + y_a6_proc_3 - tau = 0
 c33: y_a6_proc_0 <= 1
 c34: y_a6_proc_1 <= 0
 c35: y_a6_proc_2 <= 0
 c36: y_a6_proc_3 <= 0
 c37: tau <= 0.001443001443
 c38: y_a7_proc_0 + y_a7_proc_3 - tau = 0
 c39: y_a7_proc_0 <= 1
 c40: y_a7_proc_3 <= 0
 c41: tau <= 0.001540832049
 c42: y_a8_proc_0 + y_a8_proc_1 + y_a8_proc_2 + y_a8_proc_3 - tau = 0
 c43: y_a8_proc_0 <= 0
 c44: y_a8_proc_1 <= 1
 c45: y_a8_proc_2 <= 0
 c46: y_a8_proc_3 <= 0
 c47: tau <= 0.001298701299
 c48: y_a9_proc_1 + y_a9_proc_2 + y_a9_proc_3 - tau = 0
 c49: y_a9_proc_1 <= 0
 c50: y_a9_proc_2 <= 0
 c51: y_a9_proc_3 <= 1
 c52: u_a1 - u_a0 - 982 y_a0_proc_0 - 838 y_a0_proc_1 - 828 y_a0_proc_2
      - 1132 y_a0_proc_3 >= 0
 c53: u_a2 - u_a1 - 1244 y_a1_proc_0 - 672 y_a1_proc_1 >= 0
 c54: u_a0 - u_a3 - 886 y_a3_proc_0 - 728 y_a3_proc_1 - 664 y_a3_proc_3 >= 0
 c55: u_a0 - u_a4 - 1226 y_a4_proc_0 - 1086 y_a4_proc_2 - 549 y_a4_proc_3 >= -1
 c56: u_a5 - u_a2 - 295 y_a2_proc_0 - 965 y_a2_proc_1 - 1148 y_a2_proc_2
      - 880 y_a2_proc_3 >= 0
 c57: u_a6 - u_a2 - 295 y_a2_proc_0 - 965 y_a2_proc_1 - 1148 y_a2_proc_2
      - 880 y_a2_proc_3 >= -1
 c58: u_a3 - u_a7 - 693 y_a7_proc_0 - 1131 y_a7_proc_3 >= 0
 c59: u_a7 - u_a8 - 898 y_a8_proc_0 - 649 y_a8_proc_1 - 1193 y_a8_proc_2
      - 848 y_a8_proc_3 >= -1
 c60: u_a9 - u_a5 - 409 y_a5_proc_0 - 562 y_a5_proc_2 >= -1
 c61: u_a8 - u_a6 - 435 y_a6_proc_0 - 824 y_a6_proc_1 - 563 y_a6_proc_2
      - 1147 y_a6_proc_3 >= 0
 c62: u_a4 - u_a6 - 435 y_a6_proc_0 - 824 y_a6_proc_1 - 563 y_a6_proc_2
      - 1147 y_a6_proc_3 >= 0
 c63: u_a2 - u_a9 - 1090 y_a9_proc_1 - 941 y_a9_proc_2 - 770 y_a9_proc_3 >= 0
 c64: u_a3 - u_a9 - 1090 y_a9_proc_1 - 941 y_a9_proc_2 - 770 y_a9_proc_3 >= -1
 c65: u_a4 - u_a7 - 693 y_a7_proc_0 - 1131 y_a7_proc_3 >= 0
 c66: u_a2 - u_a4 - 1226 y_a4_proc_0 - 1086 y_a4_proc_2 - 549 y_a4_proc_3 >= 0
 c67: u_a7 - u_a4 - 1226 y_a4_proc_0 - 1086 y_a4_proc_2 - 549 y_a4_proc_3 >= -1
 c68: u_a7 - u_a1 - 1244 y_a1_proc_0 - 672 y_a1_proc_1 >= -1
 c69: u_a1 - u_a0 - 982 y_a0_proc_0 >= -2502
 c70: u_a1 - u_a0 - 838 y_a0_proc_1 >= -1258
 c71: u_a0 - u_a1 - 1244 y_a1_proc_0 >= -2475
 c72: u_a0 - u_a1 - 672 y_a1_proc_1 >= -1231
 c73: u_a2 - u_a0 - 828 y_a0_proc_2 >= -1231
 c74: u_a2 - u_a0 - 1132 y_a0_proc_3 >= -2475
 c75: u_a2 - u_a0 - 982 y_a0_proc_0 >= -1231
 c76: u_a2 - u_a0 - 838 y_a0_proc_1 >= -2475
 c77: u_a0 - u_a2 - 1148 y_a2_proc_2 >= -1258
 c78: u_a0 - u_a2 - 880 y_a2_proc_3 >= -2502
 c79: u_a0 - u_a2 - 295 y_a2_proc_0 >= -1258
 c80: u_a0 - u_a2 - 965 y_a2_proc_1 >= -2502
 c81: u_a3 - u_a0 - 1132 y_a0_proc_3 >= -1258
 c82: u_a3 - u_a0 - 982 y_a0_proc_0 >= -2502
 c83: u_a3 - u_a0 - 838 y_a0_proc_1 >= -2502
 c84: u_a0 - u_a3 - 664 y_a3_proc_3 >= -1231
 c85: u_a0 - u_a3 - 886 y_a3_proc_0 >= -2475
 c86: u_a0 - u_a3 - 728 y_a3_proc_1 >= -2475
 c87: u_a4 - u_a0 - 828 y_a0_proc_2 >= -1258
 c88: u_a4 - u_a0 - 1132 y_a0_proc_3 >= -2502
 c89: u_a4 - u_a0 - 982 y_a0_proc_0 >= -1258
 c90: u_a0 - u_a4 - 1086 y_a4_proc_2 >= -1231
 c91: u_a0 - u_a4 - 549 y_a4_proc_3 >= -2475
 c92: u_a0 - u_a4 - 1226 y_a4_proc_0 >= -1231
 c93: u_a5 - u_a0 - 828 y_a0_proc_2 >= 1
 c94: u_a5 - u_a0 - 982 y_a0_proc_0 >= -2487
 c95: u_a0 - u_a5 - 562 y_a5_proc_2 >= -2
 c96: u_a0 - u_a5 - 409 y_a5_proc_0 >= -2490
 c97: u_a6 - u_a0 - 828 y_a0_proc_2 >= -1231
 c98: u_a6 - u_a0 - 1132 y_a0_proc_3 >= -2475
 c99: u_a6 - u_a0 - 982 y_a0_proc_0 >= -1231
 c100: u_a6 - u_a0 - 838 y_a0_proc_1 >= -2475
 c101: u_a0 - u_a6 - 563 y_a6_proc_2 >= -1258
 c102: u_a0 - u_a6 - 1147 y_a6_proc_3 >= -2502
 c103: u_a0 - u_a6 - 435 y_a6_proc_0 >= -1258
 c104: u_a0 - u_a6 - 824 y_a6_proc_1 >= -2502
 c105: u_a7 - u_a0 - 1132 y_a0_proc_3 >= -2502
 c106: u_a7 - u_a0 - 982 y_a0_proc_0 >= -1258
 c107: u_a0 - u_a7 - 1131 y_a7_proc_3 >= -2475
 c108: u_a0 - u_a7 - 693 y_a7_proc_0 >= -1231
 c109: u_a8 - u_a0 - 828 y_a0_proc_2 >= -1258
 c110: u_a8 - u_a0 - 1132 y_a0_proc_3 >= -2502
 c111: u_a8 - u_a0 - 982 y_a0_proc_0 >= -2502
 c112: u_a8 - u_a0 - 838 y_a0_proc_1 >= -1258
 c113: u_a0 - u_a8 - 1193 y_a8_proc_2 >= -1231
 c114: u_a0 - u_a8 - 848 y_a8_proc_3 >= -2475
 c115: u_a0 - u_a8 - 898 y_a8_proc_0 >= -2475
 c116: u_a0 - u_a8 - 649 y_a8_proc_1 >= -1231
 c117: u_a9 - u_a0 - 828 y_a0_proc_2 >= -1258
 c118: u_a9 - u_a0 - 1132 y_a0_proc_3 >= -1258
 c119: u_a9 - u_a0 - 838 y_a0_proc_1 >= -2502
 c120: u_a0 - u_a9 - 941 y_a9_proc_2 >= -1231
 c121: u_a0 - u_a9 - 770 y_a9_proc_3 >= -1231
 c122: u_a0 - u_a9 - 1090 y_a9_proc_1 >= -2475
 c123: u_a2 - u_a1 - 1244 y_a1_proc_0 >= -1231
 c124: u_a2 - u_a1 - 672 y_a1_proc_1 >= -1231
 c125: u_a1 - u_a2 - 295 y_a2_proc_0 >= -1258
 c126: u_a1 - u_a2 - 965 y_a2_proc_1 >= -1258
 c127: u_a3 - u_a1 - 1244 y_a1_proc_0 >= -2502
 c128: u_a3 - u_a1 - 672 y_a1_proc_1 >= -1258
 c129: u_a1 - u_a3 - 886 y_a3_proc_0 >= -2475
 c130: u_a1 - u_a3 - 728 y_a3_proc_1 >= -1231
 c131: u_a4 - u_a1 - 1244 y_a1_proc_0 >= -1258
 c132: u_a1 - u_a4 - 1226 y_a4_proc_0 >= -1231
 c133: u_a5 - u_a1 - 1244 y_a1_proc_0 >= -2502
 c134: u_a1 - u_a5 - 409 y_a5_proc_0 >= -2475
 c135: u_a6 - u_a1 - 1244 y_a1_proc_0 >= -1258
 c136: u_a6 - u_a1 - 672 y_a1_proc_1 >= -1258
 c137: u_a1 - u_a6 - 435 y_a6_proc_0 >= -1231
 c138: u_a1 - u_a6 - 824 y_a6_proc_1 >= -1231
 c139: u_a7 - u_a1 - 1244 y_a1_proc_0 >= -1258
 c140: u_a1 - u_a7 - 693 y_a7_proc_0 >= -1231
 c141: u_a8 - u_a1 - 1244 y_a1_proc_0 >= -2489
 c142: u_a8 - u_a1 - 672 y_a1_proc_1 >= -1
 c143: u_a1 - u_a8 - 898 y_a8_proc_0 >= -2488
 c144: u_a1 - u_a8 - 649 y_a8_proc_1 >= 0
 c145: u_a9 - u_a1 - 672 y_a1_proc_1 >= -1231
 c146: u_a1 - u_a9 - 1090 y_a9_proc_1 >= -1258
 c147: u_a3 - u_a2 - 880 y_a2_proc_3 >= -1258
 c148: u_a3 - u_a2 - 295 y_a2_proc_0 >= -1258
 c149: u_a3 - u_a2 - 965 y_a2_proc_1 >= -2502
 c150: u_a2 - u_a3 - 664 y_a3_proc_3 >= -1231
 c151: u_a2 - u_a3 - 886 y_a3_proc_0 >= -1231
 c152: u_a2 - u_a3 - 728 y_a3_proc_1 >= -2475
 c153: u_a4 - u_a2 - 1148 y_a2_proc_2 >= -2489
 c154: u_a4 - u_a2 - 880 y_a2_proc_3 >= -2489
 c155: u_a4 - u_a2 - 295 y_a2_proc_0 >= -1
 c156: u_a2 - u_a4 - 1086 y_a4_proc_2 >= -2488
 c157: u_a2 - u_a4 - 549 y_a4_proc_3 >= -2488
 c158: u_a2 - u_a4 - 1226 y_a4_proc_0 >= 0
 c159: u_a5 - u_a2 - 1148 y_a2_proc_2 >= -1258
 c160: u_a5 - u_a2 - 295 y_a2_proc_0 >= -1258
 c161: u_a2 - u_a5 - 562 y_a5_proc_2 >= -1231
 c162: u_a2 - u_a5 - 409 y_a5_proc_0 >= -1231
 c163: u_a6 - u_a2 - 1148 y_a2_proc_2 >= -2489
 c164: u_a6 - u_a2 - 880 y_a2_proc_3 >= -2489
 c165: u_a6 - u_a2 - 295 y_a2_proc_0 >= -1
 c166: u_a6 - u_a2 - 965 y_a2_proc_1 >= -2489
 c167: u_a2 - u_a6 - 563 y_a6_proc_2 >= -2488
 c168: u_a2 - u_a6 - 1147 y_a6_proc_3 >= -2488
 c169: u_a2 - u_a6 - 435 y_a6_proc_0 >= 0
 c170: u_a2 - u_a6 - 824 y_a6_proc_1 >= -2488
 c171: u_a7 - u_a2 - 880 y_a2_proc_3 >= -2490
 c172: u_a7 - u_a2 - 295 y_a2_proc_0 >= -2
 c173: u_a2 - u_a7 - 1131 y_a7_proc_3 >= -2487
 c174: u_a2 - u_a7 - 693 y_a7_proc_0 >= 1
 c175: u_a8 - u_a2 - 1148 y_a2_proc_2 >= -2475
 c176: u_a8 - u_a2 - 880 y_a2_proc_3 >= -2475
 c177: u_a8 - u_a2 - 295 y_a2_proc_0 >= -1231
 c178: u_a8 - u_a2 - 965 y_a2_proc_1 >= -1231
 c179: u_a2 - u_a8 - 1193 y_a8_proc_2 >= -2502
 c180: u_a2 - u_a8 - 848 y_a8_proc_3 >= -2502
 c181: u_a2 - u_a8 - 898 y_a8_proc_0 >= -1258
 c182: u_a2 - u_a8 - 649 y_a8_proc_1 >= -1258
 c183: u_a9 - u_a2 - 1148 y_a2_proc_2 >= -2502
 c184: u_a9 - u_a2 - 880 y_a2_proc_3 >= -1258
 c185: u_a9 - u_a2 - 965 y_a2_proc_1 >= -2502
 c186: u_a2 - u_a9 - 941 y_a9_proc_2 >= -2475
 c187: u_a2 - u_a9 - 770 y_a9_proc_3 >= -1231
 c188: u_a2 - u_a9 - 1090 y_a9_proc_1 >= -2475
 c189: u_a4 - u_a3 - 664 y_a3_proc_3 >= -1258
 c190: u_a4 - u_a3 - 886 y_a3_proc_0 >= -1258
 c191: u_a3 - u_a4 - 549 y_a4_proc_3 >= -1231
 c192: u_a3 - u_a4 - 1226 y_a4_proc_0 >= -1231
 c193: u_a5 - u_a3 - 886 y_a3_proc_0 >= -2502
 c194: u_a3 - u_a5 - 409 y_a5_proc_0 >= -2475
 c195: u_a6 - u_a3 - 664 y_a3_proc_3 >= -1258
 c196: u_a6 - u_a3 - 886 y_a3_proc_0 >= -1258
 c197: u_a6 - u_a3 - 728 y_a3_proc_1 >= -2502
 c198: u_a3 - u_a6 - 1147 y_a6_proc_3 >= -1231
 c199: u_a3 - u_a6 - 435 y_a6_proc_0 >= -1231
 c200: u_a3 - u_a6 - 824 y_a6_proc_1 >= -2475
 c201: u_a7 - u_a3 - 664 y_a3_proc_3 >= -1258
 c202: u_a7 - u_a3 - 886 y_a3_proc_0 >= -1258
 c203: u_a3 - u_a7 - 1131 y_a7_proc_3 >= -1231
 c204: u_a3 - u_a7 - 693 y_a7_proc_0 >= -1231
 c205: u_a8 - u_a3 - 664 y_a3_proc_3 >= -1258
 c206: u_a8 - u_a3 - 886 y_a3_proc_0 >= -2502
 c207: u_a8 - u_a3 - 728 y_a3_proc_1 >= -1258
 c208: u_a3 - u_a8 - 848 y_a8_proc_3 >= -1231
 c209: u_a3 - u_a8 - 898 y_a8_proc_0 >= -2475
 c210: u_a3 - u_a8 - 649 y_a8_proc_1 >= -1231
 c211: u_a9 - u_a3 - 664 y_a3_proc_3 >= 0
 c212: u_a9 - u_a3 - 728 y_a3_proc_1 >= -2488
 c213: u_a3 - u_a9 - 770 y_a9_proc_3 >= -1
 c214: u_a3 - u_a9 - 1090 y_a9_proc_1 >= -2489
 c215: u_a5 - u_a4 - 1086 y_a4_proc_2 >= -1258
 c216: u_a5 - u_a4 - 1226 y_a4_proc_0 >= -1258
 c217: u_a4 - u_a5 - 562 y_a5_proc_2 >= -1231
 c218: u_a4 - u_a5 - 409 y_a5_proc_0 >= -1231
 c219: u_a6 - u_a4 - 1086 y_a4_proc_2 >= -2489
 c220: u_a6 - u_a4 - 549 y_a4_proc_3 >= -2489
 c221: u_a6 - u_a4 - 1226 y_a4_proc_0 >= -1
 c222: u_a4 - u_a6 - 563 y_a6_proc_2 >= -2488
 c223: u_a4 - u_a6 - 1147 y_a6_proc_3 >= -2488
 c224: u_a4 - u_a6 - 435 y_a6_proc_0 >= 0
 c225: u_a7 - u_a4 - 549 y_a4_proc_3 >= -2489
 c226: u_a7 - u_a4 - 1226 y_a4_proc_0 >= -1
 c227: u_a4 - u_a7 - 1131 y_a7_proc_3 >= -2488
 c228: u_a4 - u_a7 - 693 y_a7_proc_0 >= 0
 c229: u_a8 - u_a4 - 1086 y_a4_proc_2 >= -2475
 c230: u_a8 - u_a4 - 549 y_a4_proc_3 >= -2475
 c231: u_a8 - u_a4 - 1226 y_a4_proc_0 >= -1231
 c232: u_a4 - u_a8 - 1193 y_a8_proc_2 >= -2502
 c233: u_a4 - u_a8 - 848 y_a8_proc_3 >= -2502
 c234: u_a4 - u_a8 - 898 y_a8_proc_0 >= -1258
 c235: u_a9 - u_a4 - 1086 y_a4_proc_2 >= -2502
 c236: u_a9 - u_a4 - 549 y_a4_proc_3 >= -1258
 c237: u_a4 - u_a9 - 941 y_a9_proc_2 >= -2475
 c238: u_a4 - u_a9 - 770 y_a9_proc_3 >= -1231
 c239: u_a6 - u_a5 - 562 y_a5_proc_2 >= -1231
 c240: u_a6 - u_a5 - 409 y_a5_proc_0 >= -1231
 c241: u_a5 - u_a6 - 563 y_a6_proc_2 >= -1258
 c242: u_a5 - u_a6 - 435 y_a6_proc_0 >= -1258
 c243: u_a7 - u_a5 - 409 y_a5_proc_0 >= -1231
 c244: u_a5 - u_a7 - 693 y_a7_proc_0 >= -1258
 c245: u_a8 - u_a5 - 562 y_a5_proc_2 >= -1231
 c246: u_a8 - u_a5 - 409 y_a5_proc_0 >= -2475
 c247: u_a5 - u_a8 - 1193 y_a8_proc_2 >= -1258
 c248: u_a5 - u_a8 - 898 y_a8_proc_0 >= -2502
 c249: u_a9 - u_a5 - 562 y_a5_proc_2 >= -1258
 c250: u_a5 - u_a9 - 941 y_a9_proc_2 >= -1231
 c251: u_a7 - u_a6 - 1147 y_a6_proc_3 >= -2489
 c252: u_a7 - u_a6 - 435 y_a6_proc_0 >= -1
 c253: u_a6 - u_a7 - 1131 y_a7_proc_3 >= -2488
 c254: u_a6 - u_a7 - 693 y_a7_proc_0 >= 0
 c255: u_a8 - u_a6 - 563 y_a6_proc_2 >= -2502
 c256: u_a8 - u_a6 - 1147 y_a6_proc_3 >= -2502
 c257: u_a8 - u_a6 - 435 y_a6_proc_0 >= -1258
 c258: u_a8 - u_a6 - 824 y_a6_proc_1 >= -1258
 c259: u_a6 - u_a8 - 1193 y_a8_proc_2 >= -2475
 c260: u_a6 - u_a8 - 848 y_a8_proc_3 >= -2475
 c261: u_a6 - u_a8 - 898 y_a8_proc_0 >= -1231
 c262: u_a6 - u_a8 - 649 y_a8_proc_1 >= -1231
 c263: u_a9 - u_a6 - 563 y_a6_proc_2 >= -2502
 c264: u_a9 - u_a6 - 1147 y_a6_proc_3 >= -1258
 c265: u_a9 - u_a6 - 824 y_a6_proc_1 >= -2502
 c266: u_a6 - u_a9 - 941 y_a9_proc_2 >= -2475
 c267: u_a6 - u_a9 - 770 y_a9_proc_3 >= -1231
 c268: u_a6 - u_a9 - 1090 y_a9_proc_1 >= -2475
 c269: u_a8 - u_a7 - 1131 y_a7_proc_3 >= -2502
 c270: u_a8 - u_a7 - 693 y_a7_proc_0 >= -1258
 c271: u_a7 - u_a8 - 848 y_a8_proc_3 >= -2475
 c272: u_a7 - u_a8 - 898 y_a8_proc_0 >= -1231
 c273: u_a9 - u_a7 - 1131 y_a7_proc_3 >= -1258
 c274: u_a7 - u_a9 - 770 y_a9_proc_3 >= -1231
 c275: u_a9 - u_a8 - 1193 y_a8_proc_2 >= -2502
 c276: u_a9 - u_a8 - 848 y_a8_proc_3 >= -1258
 c277: u_a9 - u_a8 - 649 y_a8_proc_1 >= -1258
 c278: u_a8 - u_a9 - 941 y_a9_proc_2 >= -2475
 c279: u_a8 - u_a9 - 770 y_a9_proc_3 >= -1231
 c280: u_a8 - u_a9 - 1090 y_a9_proc_1 >= -1231

Bounds
End
